%%% Plate for the paper
%% It produces 1 plate with only controls
%%
%% 2021/Sep/17: it takes about 16s 107msec

num_rows = 16; %% height
num_cols = 24; %% width

vertical_cell_lines	 = 1;
horizontal_cell_lines = 1;

allow_empty_wells = true;
size_empty_edge = 0;

% New and used!
concentrations_on_different_rows = true;
concentrations_on_different_columns = true;

% New and unused! (Restriction: replicates_on_different_plates /\ replicates_on_same_plate == false)
replicates_on_different_plates = true;
replicates_on_same_plate = false;

%%% Compounds %%%
compounds = (num_rows-2*size_empty_edge)*(num_cols-2*size_empty_edge)-20; %% number of drugs/compounds
compound_concentrations	 = [ 1 | i in 1..compounds];
compound_replicates	 = [ 1 | i in 1..compounds];

compound_names = [""| i in 1..compounds];
compound_concentration_names = array2d(1..compounds,1..1,[ "" | i in 1..compounds]);


compound_concentration_indicators = [""];
 


%%% Combinations %%%
combinations = 0;
combination_concentrations = 0;
combination_names = [];
combination_concentration_names = [];


%% Controls %%
num_controls = 1;
control_concentrations = [1];

control_replicates = [20];
control_concentration_names = [|"1"|];

control_names = ["[DMSO]"];


%% Blanks %%
%blanks = 8;
%blanks_name = "[Mctrl]";
 